27
70
43
4
89
46
88
37
73
110
53
28
103
33
55
29
44
2
51
15
16
42
39
104
99
84
108
56
66
107
76
100
81
105
18
20
36
101
24
3
106
35
68
80
75
61
1
50
45
54
32
67
12
92
8
64
0
91
98
102
19
60
57
6
82
5
72
21
25
71
83
41
62
40
52
34
94
59
17
31
11
14
78
30
93
87
58
96
69
48
90
23
85
74
79
95
38
9
65
10
